Ni4 H3 C96 O3
1.0
  17.2199999999999989    0.0000000000000000    0.0000000000000011
  -8.6099999999999977   14.9129574531680333    0.0000000000000011
   0.0000000000000000    0.0000000000000000   15.0000000000000000
Ni H C O
4 3 96 3
direct
   0.5487600000000000    0.4287600000000000    0.3256300000000000 Ni
   0.5967200000000000    0.3998700000000000    0.4805300000000000 Ni
   0.4602200000000000    0.3741300000000000    0.4799300000000000 Ni
   0.5854100000000000    0.5103300000000000    0.4244700000000000 Ni
   0.4068700000000000    0.4393300000000000    0.5981800000000000 H
   0.6868800000000000    0.5974200000000000    0.5268100000000000 H
   0.6388800000000000    0.3506100000000000    0.6002900000000000 H
   0.9890900000000000    0.0018200000000000    0.3377100000000000 C
   0.0840900000000000    0.0492200000000000    0.3401400000000000 C
   0.9883700000000000    0.1445400000000000    0.3357500000000000 C
   0.0829600000000000    0.1916500000000000    0.3373100000000000 C
   0.9876100000000000    0.2872500000000000    0.3348200000000000 C
   0.0821700000000000    0.3344900000000000    0.3355800000000000 C
   0.9873200000000000    0.4298700000000000    0.3372000000000000 C
   0.0823600000000000    0.4773300000000000    0.3370800000000000 C
   0.9877100000000000    0.5725600000000000    0.3429400000000000 C
   0.0829400000000000    0.6201800000000000    0.3413400000000000 C
   0.9884800000000000    0.7157500000000000    0.3417900000000000 C
   0.0836500000000000    0.7633000000000000    0.3426900000000000 C
   0.9891000000000000    0.8589000000000000    0.3393600000000000 C
   0.0843100000000000    0.9065299999999999    0.3419800000000000 C
   0.1319200000000000    0.0018200000000000    0.3418300000000000 C
   0.2272800000000000    0.0494800000000000    0.3420800000000000 C
   0.1310500000000000    0.1441500000000000    0.3390900000000000 C
   0.2261100000000000    0.1918400000000000    0.3378300000000000 C
   0.1295600000000000    0.2867200000000000    0.3359500000000000 C
   0.2239400000000000    0.3340700000000000    0.3328800000000000 C
   0.1296500000000000    0.4297400000000000    0.3347900000000000 C
   0.2246700000000000    0.4771800000000000    0.3309500000000000 C
   0.1301900000000000    0.5724900000000001    0.3379500000000000 C
   0.2253200000000000    0.6199800000000000    0.3340600000000000 C
   0.1308300000000000    0.7154800000000000    0.3413000000000000 C
   0.2259300000000000    0.7630200000000000    0.3386200000000000 C
   0.1316400000000000    0.8587700000000000    0.3426800000000000 C
   0.2268600000000000    0.9063400000000000    0.3420500000000000 C
   0.2748500000000000    0.0017100000000000    0.3421200000000000 C
   0.3702000000000000    0.0490500000000000    0.3404500000000000 C
   0.2750600000000000    0.1447600000000000    0.3398700000000000 C
   0.3710000000000000    0.1915400000000000    0.3374700000000000 C
   0.2711700000000000    0.2862200000000000    0.3326400000000000 C
   0.3684500000000000    0.3356300000000000    0.3177400000000000 C
   0.2715500000000000    0.4292200000000000    0.3283600000000000 C
   0.3660700000000000    0.4760800000000000    0.3201500000000000 C
   0.2726200000000000    0.5723200000000001    0.3294900000000000 C
   0.3676900000000000    0.6197000000000000    0.3234100000000000 C
   0.2729800000000000    0.7151300000000000    0.3345100000000000 C
   0.3677500000000000    0.7625200000000000    0.3313100000000000 C
   0.2737900000000000    0.8583800000000000    0.3395400000000000 C
   0.3687900000000000    0.9057400000000000    0.3370300000000000 C
   0.4175600000000000    0.0013300000000000    0.3371100000000000 C
   0.5129899999999999    0.0493600000000000    0.3322300000000000 C
   0.4183700000000000    0.1443400000000000    0.3389300000000000 C
   0.5137800000000000    0.1928400000000000    0.3324600000000000 C
   0.4198900000000000    0.2842400000000000    0.3207000000000000 C
   0.5121900000000000    0.3298800000000000    0.3116100000000000 C
   0.4116900000000000    0.4226500000000000    0.3111900000000000 C
   0.4146200000000000    0.5714700000000000    0.3147900000000000 C
   0.5144200000000000    0.6245600000000000    0.3031700000000000 C
   0.4151300000000000    0.7152600000000000    0.3257700000000000 C
   0.5153100000000000    0.7666800000000000    0.3255100000000000 C
   0.4151200000000000    0.8575199999999999    0.3333333333333333 C
   0.5147400000000000    0.9078100000000000    0.3312900000000000 C
   0.5612800000000000    0.0024900000000000    0.3305800000000000 C
   0.6563200000000000    0.0502300000000000    0.3285700000000000 C
   0.5606700000000000    0.1447800000000000    0.3277100000000000 C
   0.6556000000000000    0.1919000000000000    0.3200400000000000 C
   0.5620500000000000    0.2886700000000000    0.3191900000000000 C
   0.6546200000000000    0.3355700000000000    0.3182900000000000 C
   0.6770000000000000    0.4888200000000000    0.3042400000000000 C
   0.5655700000000000    0.5917000000000000    0.3166500000000000 C
   0.6516100000000000    0.6148700000000000    0.3264400000000000 C
   0.5632700000000000    0.7212000000000000    0.3195000000000000 C
   0.6580800000000000    0.7671700000000000    0.3239600000000000 C
   0.5623400000000000    0.8609700000000000    0.3293200000000000 C
   0.6572700000000000    0.9083800000000000    0.3293900000000000 C
   0.7042600000000000    0.0030000000000000    0.3296300000000000 C
   0.7991000000000000    0.0501500000000000    0.3305500000000000 C
   0.7034000000000000    0.1449600000000000    0.3252100000000000 C
   0.7982100000000000    0.1924900000000000    0.3273400000000000 C
   0.7031200000000000    0.2866700000000000    0.3115200000000000 C
   0.7973800000000000    0.3349300000000000    0.3247000000000000 C
   0.6947600000000000    0.4285000000000000    0.3243700000000000 C
   0.7965200000000000    0.4773300000000000    0.3403000000000000 C
   0.7070600000000000    0.5751800000000000    0.3084000000000000 C
   0.7999400000000000    0.6208300000000000    0.3251200000000000 C
   0.7046900000000000    0.7179700000000000    0.3228800000000000 C
   0.7994700000000000    0.7643400000000000    0.3269600000000000 C
   0.7052100000000000    0.8612300000000001    0.3284800000000000 C
   0.7997000000000000    0.9076300000000000    0.3310100000000000 C
   0.8468100000000000    0.0024900000000000    0.3325100000000000 C
   0.9414900000000000    0.0496000000000000    0.3353300000000000 C
   0.8460800000000001    0.1450700000000000    0.3306600000000000 C
   0.9407200000000000    0.1922600000000000    0.3337500000000000 C
   0.8453200000000000    0.2876200000000000    0.3289500000000000 C
   0.9400100000000000    0.3348800000000000    0.3340900000000000 C
   0.8441200000000000    0.4297100000000000    0.3357300000000000 C
   0.9396600000000001    0.4772900000000000    0.3396100000000000 C
   0.8455700000000000    0.5726400000000000    0.3385000000000000 C
   0.9405700000000000    0.6203000000000000    0.3427100000000000 C
   0.8465300000000000    0.7159799999999999    0.3303300000000000 C
   0.9412800000000000    0.7635400000000000    0.3383400000000000 C
   0.8470200000000000    0.8594600000000000    0.3314000000000000 C
   0.9417400000000000    0.9066700000000000    0.3363600000000000 C
   0.6346200000000000    0.5983400000000000    0.4992300000000000 O
   0.4675600000000000    0.4557600000000000    0.5592000000000000 O
   0.5968000000000000    0.3170700000000000    0.5508900000000000 O
