C Ni O H                                
   1.00000000000000     
    17.2199999999999989    0.0000000000000000    0.0000000000000000
    -8.6099999999999994   14.9129600000000000    0.0000000000000000
     0.0000000000000000    0.0000000000000000   15.0000000000000000
   C    Ni   O    H 
    96     4     3     3
Selective dynamics
Direct
  0.9887754238449740  0.0003772535036494  0.3395583794516071   T   T   T
  0.0835247975972366  0.0469543397619767  0.3427337646291508   T   T   T
  0.9881878110303611  0.1432032527531289  0.3372377216132293   T   T   T
  0.0830366728037047  0.1899811932634865  0.3383623586167478   T   T   T
  0.9881053084423899  0.2860515250861143  0.3342332360094679   T   T   T
  0.0831648128989279  0.3333794931719433  0.3335965840490903   T   T   T
  0.9890401630798121  0.4288181097288501  0.3337817710322765   T   T   T
  0.0844180412468660  0.4762606799058708  0.3346480730565667   T   T   T
  0.9900638832144300  0.5718650070025307  0.3348652099148346   T   T   T
  0.0852017489532205  0.6191706201853809  0.3383176905566323   T   T   T
  0.9905377579865915  0.7153281523393205  0.3362855371127470   T   T   T
  0.0853420664975502  0.7621547836911968  0.3416509754535995   T   T   T
  0.9902092723891358  0.8582180520687068  0.3379890725723855   T   T   T
  0.0847993949430038  0.9047441957275943  0.3433134711218233   T   T   T
  0.1314810075085396 -0.0006249000381192  0.3442906436469124   T   T   T
  0.2263448001895292  0.0463654474126090  0.3430046083473068   T   T   T
  0.1300130691431687  0.1415536627344048  0.3407498205813190   T   T   T
  0.2243989030741119  0.1882381836335557  0.3382523079121426   T   T   T
  0.1303145548217547  0.2852426382973854  0.3342677904770896   T   T   T
  0.2250369964987231  0.3325534907456682  0.3302742746166271   T   T   T
  0.1317161913564475  0.4284935717604134  0.3325318554174472   T   T   T
  0.2270237446945112  0.4757898049089762  0.3292155029154941   T   T   T
  0.1324645107406223  0.5713916064765947  0.3359418488569024   T   T   T
  0.2278845749403113  0.6190929541265658  0.3337887780781865   T   T   T
  0.1328553327510237  0.7143393425378712  0.3408995755761122   T   T   T
  0.2280260355160143  0.7617566190989735  0.3395118839975985   T   T   T
  0.1325853725535278  0.8571813226429879  0.3440905735965664   T   T   T
  0.2276980391984562  0.9044929780829650  0.3440805304611093   T   T   T
  0.2748289490320351 -0.0005717123652256  0.3426898850239267   T   T   T
  0.3697731596784681  0.0469165072420337  0.3370335166460535   T   T   T
  0.2725290186856351  0.1407802565418477  0.3387491621754866   T   T   T
  0.3670692315619004  0.1872886809613298  0.3332166843193411   T   T   T
  0.2700883538053088  0.2826793116545231  0.3324690443552404   T   T   T
  0.3643384578992961  0.3289599519485662  0.3268781704463740   T   T   T
  0.2745012795510802  0.4280002527812956  0.3260812517061551   T   T   T
  0.3706316216103775  0.4751879140978883  0.3251388347492048   T   T   T
  0.2753106492156280  0.5710631987194585  0.3299382914491163   T   T   T
  0.3711030642807250  0.6186978605189946  0.3280811190209206   T   T   T
  0.2755569888115632  0.7143387252456644  0.3348543051956571   T   T   T
  0.3707720286914492  0.7619328016316746  0.3311971535596453   T   T   T
  0.2755671706774347  0.8570352544520293  0.3406978885659767   T   T   T
  0.3706274520093111  0.9046566139505863  0.3366532090341220   T   T   T
  0.4178629612293964 -0.0001657457226612  0.3353523449664548   T   T   T
  0.5129663472388283  0.0483395470701751  0.3304882080549544   T   T   T
  0.4166213278510680  0.1418299985312671  0.3308334821736313   T   T   T
  0.5116735584613352  0.1905458327838285  0.3231930030835280   T   T   T
  0.4133126645296799  0.2815539040159236  0.3278456482379332   T   T   T
  0.5084887578988632  0.3318824946773447  0.3207451062401211   T   T   T
  0.4156005586671679  0.4245932915112267  0.3248253619085062   T   T   T
  0.4189077006981163  0.5710035733349009  0.3276750873341825   T   T   T
  0.5150825633940630  0.6194089236610287  0.3307827257551850   T   T   T
  0.4185320859019544  0.7144397908350381  0.3280699453126296   T   T   T
  0.5138765763495079  0.7626940703993462  0.3249417688211833   T   T   T
  0.4182984872678870  0.8572758671485218  0.3316424653820575   T   T   T
  0.5133215535845984  0.9054817153967607  0.3280319301754623   T   T   T
  0.5606664791031092  0.0009327149371620  0.3289946592614026   T   T   T
  0.6556587096834748  0.0488548990255690  0.3286165252444421   T   T   T
  0.5598702702375897  0.1435373071048175  0.3258587683032333   T   T   T
  0.6550855545960508  0.1918637667561145  0.3252495129948231   T   T   T
  0.5582328358203578  0.2865638673070371  0.3184082873860070   T   T   T
  0.6552629041460589  0.3354011991428531  0.3186874913574676   T   T   T
  0.6599198981535431  0.4821278404483190  0.3335674122644742   T   T   T
  0.5659273992431253  0.5750363451966948  0.3413182357970537   T   T   T
  0.6606834964252519  0.6248213600888164  0.3289803400146696   T   T   T
  0.5617328083248790  0.7150790378075673  0.3246629910333986   T   T   T
  0.6572226782749728  0.7641271064293532  0.3222735768314984   T   T   T
  0.5610491485139266  0.8580821180184444  0.3248168161365304   T   T   T
  0.6562175277083563  0.9063151573099173  0.3250686976733529   T   T   T
  0.7034472529160917  0.0013809089249110  0.3278759854048275   T   T   T
  0.7984838348461403  0.0488167448061610  0.3305900623345841   T   T   T
  0.7027510096066520  0.1441901150968668  0.3289591170491143   T   T   T
  0.7980353133566481  0.1916153950017452  0.3310673184555334   T   T   T
  0.7026182144508694  0.2876526289377996  0.3223937029604684   T   T   T
  0.7982568452684909  0.3347513156377070  0.3260898531474544   T   T   T
  0.7044817830025509  0.4316003949536842  0.3206127669624007   T   T   T
  0.7999904205517762  0.4782562940551361  0.3217000544056859   T   T   T
  0.7087019872576364  0.5772907990764895  0.3281822117835114   T   T   T
  0.8024465227684682  0.6228169111396459  0.3226755996194522   T   T   T
  0.7064096816285690  0.7182183858829909  0.3211840264842461   T   T   T
  0.8014734520759651  0.7651278289448413  0.3224990343416337   T   T   T
  0.7043085294817751  0.8591807960275472  0.3242109013517993   T   T   T
  0.7994077695610077  0.9063167542742496  0.3282017790162194   T   T   T
  0.8462149616400100  0.0010557584604711  0.3319542664703694   T   T   T
  0.9411995917991427  0.0482238346961292  0.3365384693199968   T   T   T
  0.8457118383640884  0.1440184578623994  0.3324237332913411   T   T   T
  0.9407167034458004  0.1911175016658848  0.3346279011531738   T   T   T
  0.8455907160395963  0.2867945686468196  0.3308192295365771   T   T   T
  0.9407750849516678  0.3337767211202045  0.3330831511586546   T   T   T
  0.8468048071177559  0.4299552962945304  0.3256419088637608   T   T   T
  0.9419180101006404  0.4767780695743442  0.3314902546947855   T   T   T
  0.8484273819481711  0.5734513529962245  0.3246263062709500   T   T   T
  0.9430792172730155  0.6201509789297861  0.3319568436393098   T   T   T
  0.8494902595127695  0.7178228415322015  0.3245443221241855   T   T   T
  0.9436409147075587  0.7637288773142550  0.3328122035660948   T   T   T
  0.8479454875606386  0.8594832576201331  0.3284533411238047   T   T   T
  0.9423843924134659  0.9057632500091913  0.3359930926419172   T   T   T
  0.5375948822120951  0.4543452873754444  0.3290906003720665   T   T   T
  0.5958414866428019  0.4052204725638517  0.4363120074006334   T   T   T
  0.4265661538627060  0.3796697561626343  0.4443480551604432   T   T   T
  0.5559455944506406  0.5222970609091515  0.4752942236941875   T   T   T
  0.6479836320931339  0.6181200815726985  0.5288315086037264   T   T   T
  0.4549976188389137  0.4320633782271459  0.5552004480700189   T   T   T
  0.6266696839051054  0.3582597919860384  0.5261749435082752   T   T   T
  0.4123763179293257  0.4499890726462462  0.5767440672041197   T   T   T
  0.6935940013735549  0.6057841691842205  0.5530752592928125   T   T   T
  0.6177260783165094  0.3754499086837084  0.5853687018595063   T   T   T
 
  0.00000000E+00  0.00000000E+00  0.00000000E+00
  0.00000000E+00  0.00000000E+00  0.00000000E+00
  0.00000000E+00  0.00000000E+00  0.00000000E+00
  0.00000000E+00  0.00000000E+00  0.00000000E+00
  0.00000000E+00  0.00000000E+00  0.00000000E+00
  0.00000000E+00  0.00000000E+00  0.00000000E+00
  0.00000000E+00  0.00000000E+00  0.00000000E+00
  0.00000000E+00  0.00000000E+00  0.00000000E+00
  0.00000000E+00  0.00000000E+00  0.00000000E+00
  0.00000000E+00  0.00000000E+00  0.00000000E+00
  0.00000000E+00  0.00000000E+00  0.00000000E+00
  0.00000000E+00  0.00000000E+00  0.00000000E+00
  0.00000000E+00  0.00000000E+00  0.00000000E+00
  0.00000000E+00  0.00000000E+00  0.00000000E+00
  0.00000000E+00  0.00000000E+00  0.00000000E+00
  0.00000000E+00  0.00000000E+00  0.00000000E+00
  0.00000000E+00  0.00000000E+00  0.00000000E+00
  0.00000000E+00  0.00000000E+00  0.00000000E+00
  0.00000000E+00  0.00000000E+00  0.00000000E+00
  0.00000000E+00  0.00000000E+00  0.00000000E+00
  0.00000000E+00  0.00000000E+00  0.00000000E+00
  0.00000000E+00  0.00000000E+00  0.00000000E+00
  0.00000000E+00  0.00000000E+00  0.00000000E+00
  0.00000000E+00  0.00000000E+00  0.00000000E+00
  0.00000000E+00  0.00000000E+00  0.00000000E+00
  0.00000000E+00  0.00000000E+00  0.00000000E+00
  0.00000000E+00  0.00000000E+00  0.00000000E+00
  0.00000000E+00  0.00000000E+00  0.00000000E+00
  0.00000000E+00  0.00000000E+00  0.00000000E+00
  0.00000000E+00  0.00000000E+00  0.00000000E+00
  0.00000000E+00  0.00000000E+00  0.00000000E+00
  0.00000000E+00  0.00000000E+00  0.00000000E+00
  0.00000000E+00  0.00000000E+00  0.00000000E+00
  0.00000000E+00  0.00000000E+00  0.00000000E+00
  0.00000000E+00  0.00000000E+00  0.00000000E+00
  0.00000000E+00  0.00000000E+00  0.00000000E+00
  0.00000000E+00  0.00000000E+00  0.00000000E+00
  0.00000000E+00  0.00000000E+00  0.00000000E+00
  0.00000000E+00  0.00000000E+00  0.00000000E+00
  0.00000000E+00  0.00000000E+00  0.00000000E+00
  0.00000000E+00  0.00000000E+00  0.00000000E+00
  0.00000000E+00  0.00000000E+00  0.00000000E+00
  0.00000000E+00  0.00000000E+00  0.00000000E+00
  0.00000000E+00  0.00000000E+00  0.00000000E+00
  0.00000000E+00  0.00000000E+00  0.00000000E+00
  0.00000000E+00  0.00000000E+00  0.00000000E+00
  0.00000000E+00  0.00000000E+00  0.00000000E+00
  0.00000000E+00  0.00000000E+00  0.00000000E+00
  0.00000000E+00  0.00000000E+00  0.00000000E+00
  0.00000000E+00  0.00000000E+00  0.00000000E+00
  0.00000000E+00  0.00000000E+00  0.00000000E+00
  0.00000000E+00  0.00000000E+00  0.00000000E+00
  0.00000000E+00  0.00000000E+00  0.00000000E+00
  0.00000000E+00  0.00000000E+00  0.00000000E+00
  0.00000000E+00  0.00000000E+00  0.00000000E+00
  0.00000000E+00  0.00000000E+00  0.00000000E+00
  0.00000000E+00  0.00000000E+00  0.00000000E+00
  0.00000000E+00  0.00000000E+00  0.00000000E+00
  0.00000000E+00  0.00000000E+00  0.00000000E+00
  0.00000000E+00  0.00000000E+00  0.00000000E+00
  0.00000000E+00  0.00000000E+00  0.00000000E+00
  0.00000000E+00  0.00000000E+00  0.00000000E+00
  0.00000000E+00  0.00000000E+00  0.00000000E+00
  0.00000000E+00  0.00000000E+00  0.00000000E+00
  0.00000000E+00  0.00000000E+00  0.00000000E+00
  0.00000000E+00  0.00000000E+00  0.00000000E+00
  0.00000000E+00  0.00000000E+00  0.00000000E+00
  0.00000000E+00  0.00000000E+00  0.00000000E+00
  0.00000000E+00  0.00000000E+00  0.00000000E+00
  0.00000000E+00  0.00000000E+00  0.00000000E+00
  0.00000000E+00  0.00000000E+00  0.00000000E+00
  0.00000000E+00  0.00000000E+00  0.00000000E+00
  0.00000000E+00  0.00000000E+00  0.00000000E+00
  0.00000000E+00  0.00000000E+00  0.00000000E+00
  0.00000000E+00  0.00000000E+00  0.00000000E+00
  0.00000000E+00  0.00000000E+00  0.00000000E+00
  0.00000000E+00  0.00000000E+00  0.00000000E+00
  0.00000000E+00  0.00000000E+00  0.00000000E+00
  0.00000000E+00  0.00000000E+00  0.00000000E+00
  0.00000000E+00  0.00000000E+00  0.00000000E+00
  0.00000000E+00  0.00000000E+00  0.00000000E+00
  0.00000000E+00  0.00000000E+00  0.00000000E+00
  0.00000000E+00  0.00000000E+00  0.00000000E+00
  0.00000000E+00  0.00000000E+00  0.00000000E+00
  0.00000000E+00  0.00000000E+00  0.00000000E+00
  0.00000000E+00  0.00000000E+00  0.00000000E+00
  0.00000000E+00  0.00000000E+00  0.00000000E+00
  0.00000000E+00  0.00000000E+00  0.00000000E+00
  0.00000000E+00  0.00000000E+00  0.00000000E+00
  0.00000000E+00  0.00000000E+00  0.00000000E+00
  0.00000000E+00  0.00000000E+00  0.00000000E+00
  0.00000000E+00  0.00000000E+00  0.00000000E+00
  0.00000000E+00  0.00000000E+00  0.00000000E+00
  0.00000000E+00  0.00000000E+00  0.00000000E+00
  0.00000000E+00  0.00000000E+00  0.00000000E+00
  0.00000000E+00  0.00000000E+00  0.00000000E+00
  0.00000000E+00  0.00000000E+00  0.00000000E+00
  0.00000000E+00  0.00000000E+00  0.00000000E+00
  0.00000000E+00  0.00000000E+00  0.00000000E+00
  0.00000000E+00  0.00000000E+00  0.00000000E+00
  0.00000000E+00  0.00000000E+00  0.00000000E+00
  0.00000000E+00  0.00000000E+00  0.00000000E+00
  0.00000000E+00  0.00000000E+00  0.00000000E+00
  0.00000000E+00  0.00000000E+00  0.00000000E+00
  0.00000000E+00  0.00000000E+00  0.00000000E+00
  0.00000000E+00  0.00000000E+00  0.00000000E+00
