Ni4 H3 C96 O3
1.0
  17.2199999999999989    0.0000000000000000    0.0000000000000011
  -8.6099999999999977   14.9129574531680333    0.0000000000000011
   0.0000000000000000    0.0000000000000000   15.0000000000000000
Ni H C O
4 3 96 3
direct
   0.5375900000000000    0.4543500000000000    0.3290900000000000 Ni
   0.5958400000000000    0.4052200000000000    0.4363100000000000 Ni
   0.4265700000000000    0.3796700000000000    0.4443500000000000 Ni
   0.5559500000000001    0.5223000000000000    0.4752900000000000 Ni
   0.3115800000000000    0.3454200000000000    0.5309000000000000 H
   0.6935900000000000    0.6057800000000000    0.5530800000000000 H
   0.6177300000000000    0.3754500000000000    0.5853699999999999 H
   0.9887800000000000    0.0003800000000000    0.3395600000000000 C
   0.0835200000000000    0.0469500000000000    0.3427300000000000 C
   0.9881900000000000    0.1432000000000000    0.3372400000000000 C
   0.0830400000000000    0.1899800000000000    0.3383600000000000 C
   0.9881100000000000    0.2860500000000000    0.3342300000000000 C
   0.0831600000000000    0.3333800000000000    0.3336000000000000 C
   0.9890400000000000    0.4288200000000000    0.3337800000000000 C
   0.0844200000000000    0.4762600000000000    0.3346500000000000 C
   0.9900600000000001    0.5718700000000000    0.3348700000000000 C
   0.0852000000000000    0.6191700000000000    0.3383200000000000 C
   0.9905400000000000    0.7153300000000000    0.3362900000000000 C
   0.0853400000000000    0.7621500000000000    0.3416500000000000 C
   0.9902100000000000    0.8582200000000000    0.3379900000000000 C
   0.0848000000000000    0.9047400000000000    0.3433100000000000 C
   0.1314800000000000    0.9993800000000000    0.3442900000000000 C
   0.2263400000000000    0.0463700000000000    0.3430000000000000 C
   0.1300100000000000    0.1415500000000000    0.3407500000000000 C
   0.2244000000000000    0.1882400000000000    0.3382500000000000 C
   0.1303100000000000    0.2852400000000000    0.3342700000000000 C
   0.2250400000000000    0.3325500000000000    0.3302700000000000 C
   0.1317200000000000    0.4284900000000000    0.3325300000000000 C
   0.2270200000000000    0.4757900000000000    0.3292200000000000 C
   0.1324600000000000    0.5713900000000000    0.3359400000000000 C
   0.2278800000000000    0.6190900000000000    0.3337900000000000 C
   0.1328600000000000    0.7143400000000000    0.3409000000000000 C
   0.2280300000000000    0.7617600000000000    0.3395100000000000 C
   0.1325900000000000    0.8571800000000001    0.3440900000000000 C
   0.2277000000000000    0.9044900000000000    0.3440800000000000 C
   0.2748300000000000    0.9994300000000000    0.3426900000000000 C
   0.3697700000000000    0.0469200000000000    0.3370300000000000 C
   0.2725300000000000    0.1407800000000000    0.3387500000000000 C
   0.3670700000000000    0.1872900000000000    0.3332200000000000 C
   0.2700900000000000    0.2826800000000000    0.3324700000000000 C
   0.3643400000000000    0.3289600000000000    0.3268800000000000 C
   0.2745000000000000    0.4280000000000000    0.3260800000000000 C
   0.3706300000000000    0.4751900000000000    0.3251400000000000 C
   0.2753100000000000    0.5710600000000000    0.3299400000000000 C
   0.3711000000000000    0.6187000000000000    0.3280800000000000 C
   0.2755600000000000    0.7143400000000000    0.3348500000000000 C
   0.3707700000000000    0.7619300000000000    0.3312000000000000 C
   0.2755700000000000    0.8570400000000000    0.3407000000000000 C
   0.3706300000000000    0.9046600000000000    0.3366500000000000 C
   0.4178600000000000    0.9998300000000000    0.3353500000000000 C
   0.5129700000000000    0.0483400000000000    0.3304900000000000 C
   0.4166200000000000    0.1418300000000000    0.3308300000000000 C
   0.5116700000000000    0.1905500000000000    0.3231900000000000 C
   0.4133100000000000    0.2815500000000000    0.3278500000000000 C
   0.5084900000000000    0.3318800000000000    0.3207500000000000 C
   0.4156000000000000    0.4245900000000000    0.3248300000000000 C
   0.4189100000000000    0.5710000000000000    0.3276800000000000 C
   0.5150800000000000    0.6194100000000000    0.3307800000000000 C
   0.4185300000000000    0.7144400000000000    0.3280700000000000 C
   0.5138800000000000    0.7626900000000000    0.3249400000000000 C
   0.4183000000000000    0.8572800000000000    0.3316400000000000 C
   0.5133200000000000    0.9054800000000000    0.3280300000000000 C
   0.5606700000000000    0.0009300000000000    0.3289900000000000 C
   0.6556600000000000    0.0488500000000000    0.3286200000000000 C
   0.5598700000000000    0.1435400000000000    0.3258600000000000 C
   0.6550900000000000    0.1918600000000000    0.3252500000000000 C
   0.5582300000000000    0.2865600000000000    0.3184100000000000 C
   0.6552600000000000    0.3354000000000000    0.3186900000000000 C
   0.6599200000000000    0.4821300000000000    0.3335700000000000 C
   0.5659300000000000    0.5750400000000000    0.3413200000000000 C
   0.6606800000000000    0.6248200000000000    0.3289800000000000 C
   0.5617300000000000    0.7150800000000000    0.3246600000000000 C
   0.6572200000000000    0.7641300000000000    0.3222700000000000 C
   0.5610500000000000    0.8580800000000000    0.3248200000000000 C
   0.6562200000000000    0.9063200000000000    0.3250700000000000 C
   0.7034500000000000    0.0013800000000000    0.3278800000000000 C
   0.7984800000000000    0.0488200000000000    0.3305900000000000 C
   0.7027500000000000    0.1441900000000000    0.3289600000000000 C
   0.7980400000000000    0.1916200000000000    0.3310700000000000 C
   0.7026200000000000    0.2876500000000000    0.3223900000000000 C
   0.7982600000000000    0.3347500000000000    0.3260900000000000 C
   0.7044800000000000    0.4316000000000000    0.3206100000000000 C
   0.7999900000000000    0.4782600000000000    0.3217000000000000 C
   0.7087000000000000    0.5772900000000000    0.3281800000000000 C
   0.8024500000000000    0.6228200000000000    0.3226800000000000 C
   0.7064100000000000    0.7182200000000000    0.3211800000000000 C
   0.8014700000000000    0.7651300000000000    0.3225000000000000 C
   0.7043100000000000    0.8591800000000001    0.3242100000000000 C
   0.7994100000000000    0.9063200000000000    0.3282000000000000 C
   0.8462100000000000    0.0010600000000000    0.3319500000000000 C
   0.9412000000000000    0.0482200000000000    0.3365400000000000 C
   0.8457100000000000    0.1440200000000000    0.3324200000000000 C
   0.9407200000000000    0.1911200000000000    0.3346300000000000 C
   0.8455900000000000    0.2867900000000000    0.3308200000000000 C
   0.9407799999999999    0.3337800000000000    0.3330800000000000 C
   0.8468000000000000    0.4299600000000000    0.3256400000000000 C
   0.9419200000000000    0.4767800000000000    0.3314900000000000 C
   0.8484300000000000    0.5734500000000000    0.3246300000000000 C
   0.9430800000000000    0.6201500000000000    0.3319600000000000 C
   0.8494900000000000    0.7178200000000000    0.3245400000000000 C
   0.9436400000000000    0.7637300000000000    0.3328100000000000 C
   0.8479500000000000    0.8594800000000000    0.3284500000000000 C
   0.9423800000000000    0.9057600000000000    0.3359900000000000 C
   0.6479800000000000    0.6181200000000000    0.5288300000000000 O
   0.3542000000000000    0.3275000000000000    0.5093600000000000 O
   0.6266699999999999    0.3582600000000000    0.5261700000000000 O
